WARNING: for repeatability, setting FPU to use double precision
============================[ Problem Statistics ]=============================
|                                                                             |
|  Number of variables:           100                                         |
|  Number of clauses:             449                                         |
|  Parse time:                   0.00 s                                       |
|  Eliminated clauses:           0.00 Mb                                      |
|  Simplification time:          0.00 s                                       |
|                                                                             |
============================[ Search Statistics ]==============================
| Conflicts |          ORIGINAL         |          LEARNT          | Progress |
|           |    Vars  Clauses Literals |    Limit  Clauses Lit/Cl |          |
===============================================================================
|       100 |      94      442     1363 |      162      100      7 |  0.010 % |
|       250 |      94      442     1363 |      178      167      6 |  0.010 % |
===============================================================================
restarts              : 3
conflicts             : 291            (217326 /sec)
decisions             : 336            (0.00 % random) (250934 /sec)
propagations          : 5840           (4361464 /sec)
conflict literals     : 1854           (18.61 % deleted)
Memory used           : 13.00 MB
CPU time              : 0.001339 s

SATISFIABLE
